1	 2 
1	 3 
1	 15 
1	 29 
2	 3 
2	 16 
3	 4 
3	 17 
4	 5 
4	 18 
5	 6 
5	 19 
6	 7 
6	 20 
7	 8 
7	 21 
8	 9 
8	 22 
9	 10 
9	 23 
10	 11 
10	 24 
11	 12 
11	 25 
12	 13 
12	 26 
13	 14 
13	 27 
14	 15 
14	 28 
15	 16 
15	 29 
16	 17 
17	 18 
18	 19 
19	 20 
20	 21 
21	 22 
22	 23 
23	 24 
24	 25 
25	 26 
26	 27 
27	 28 
28	 29 
